# Objective value = 3.0643164452499735e+02
x[0] 0
x[1] 0
x[2] 1
x[3] 0
x[4] 1
x[5] 1
x[6] 1
x[7] 1
x[8] 0
x[9] 0
x[10] 1
x[11] 1
x[12] 1
x[13] 0
x[14] 0
x[15] 1
x[16] 1
x[17] 1
x[18] 0
x[19] 1
x[20] 0
x[21] 1
x[22] 1
x[23] 1
x[24] 0
x[25] 1
x[26] 1
x[27] 0
x[28] 1
x[29] 0
x[30] 1
x[31] 0
x[32] 0
x[33] 0
x[34] 1
x[35] 0
x[36] 0
x[37] 1
x[38] 0
x[39] 1
x[40] 1
x[41] 0
x[42] 1
x[43] 0
x[44] 1
x[45] 0
x[46] 1
x[47] 0
x[48] 0
x[49] 0
x[50] 0
x[51] 1
x[52] 1
x[53] 0
x[54] 1
x[55] 1
x[56] 1
x[57] 0
x[58] 1
x[59] 1
x[60] 1
x[61] 1
x[62] 1
x[63] 1
x[64] 0
x[65] 1
x[66] 1
x[67] 1
x[68] 1
x[69] 0
x[70] 1
x[71] 1
x[72] 1
x[73] 1
x[74] 0
x[75] 1
x[76] 0
x[77] 1
x[78] 0
x[79] 1
x[80] 1
x[81] 0
x[82] 0
x[83] 0
x[84] 0
x[85] 0
x[86] 1
x[87] 0
x[88] 0
x[89] 1
x[90] 1
x[91] 1
x[92] 1
x[93] 1
x[94] 1
x[95] 1
x[96] 1
x[97] 1
x[98] 1
x[99] 1
x[100] 1
x[101] 0
x[102] 1
x[103] 1
x[104] 1
x[105] 0
x[106] 0
x[107] 0
x[108] 0
x[109] 1
x[110] 1
x[111] 1
x[112] 1
x[113] 0
x[114] 0
x[115] 0
x[116] 0
x[117] 1
x[118] 1
x[119] 1
x[120] 0
x[121] 0
x[122] 1
x[123] 1
x[124] 0
x[125] 1
x[126] 0
x[127] 0
x[128] 1
x[129] 0
x[130] 0
x[131] 0
x[132] 1
x[133] 0
x[134] 1
x[135] 0
x[136] 1
x[137] 0
x[138] 1
x[139] 1
x[140] 0
x[141] 1
x[142] 1
x[143] 1
x[144] 0
x[145] 0
x[146] 0
x[147] 0
x[148] 0
x[149] 1
x[150] 0
x[151] 1
x[152] 1
x[153] 0
x[154] 1
x[155] 0
x[156] 1
x[157] 0
x[158] 1
x[159] 1
x[160] 1
x[161] 0
x[162] 0
x[163] 0
x[164] 1
x[165] 0
x[166] 1
x[167] 1
x[168] 0
x[169] 1
x[170] 0
x[171] 0
x[172] 1
x[173] 1
x[174] 1
x[175] 0
x[176] 1
x[177] 1
x[178] 0
x[179] 1
x[180] 1
x[181] 0
x[182] 1
x[183] 1
x[184] 1
x[185] 1
x[186] 0
x[187] 0
x[188] 0
x[189] 1
x[190] 1
x[191] 0
x[192] 1
x[193] 1
x[194] 1
x[195] 0
x[196] 1
x[197] 1
x[198] 0
x[199] 1
x[200] 1
x[201] 0
x[202] 1
x[203] 0
x[204] 1
x[205] 0
x[206] 0
x[207] 1
x[208] 0
x[209] 0
x[210] 0
x[211] 0
x[212] 0
x[213] 0
x[214] 0
x[215] 1
x[216] 0
x[217] 0
x[218] 0
x[219] 0
x[220] 1
x[221] 0
x[222] 0
x[223] 0
x[224] 1
x[225] 0
x[226] 1
x[227] 0
x[228] 1
x[229] 0
x[230] 0
x[231] 1
x[232] 0
x[233] 0
x[234] 1
x[235] 0
x[236] 0
x[237] 1
x[238] 0
x[239] 1
x[240] 0
x[241] 0
x[242] 1
x[243] 0
x[244] 0
x[245] 0
x[246] 1
x[247] 0
x[248] 1
x[249] 1
x[250] 0
x[251] 1
x[252] 1
x[253] 0
x[254] 0
x[255] 0
x[256] 1
x[257] 1
x[258] 1
x[259] 0
x[260] 0
x[261] 0
x[262] 0
x[263] 1
x[264] 0
x[265] 0
x[266] 0
x[267] 0
x[268] 1
x[269] 1
x[270] 0
x[271] 1
x[272] 0
x[273] 1
x[274] 0
x[275] 1
x[276] 1
x[277] 1
x[278] 0
x[279] 0
x[280] 0
x[281] 0
x[282] 0
x[283] 0
x[284] 1
x[285] 1
x[286] 0
x[287] 1
x[288] 1
x[289] 0
x[290] 0
x[291] 1
x[292] 0
x[293] 0
x[294] 1
x[295] 0
x[296] 0
x[297] 1
x[298] 0
x[299] 0
x[300] 1
x[301] 0
x[302] 0
x[303] 1
x[304] 0
x[305] 0
x[306] 1
x[307] 0
x[308] 0
x[309] 0
x[310] 0
x[311] 1
x[312] 1
x[313] 1
x[314] 1
x[315] 0
x[316] 1
x[317] 0
x[318] 1
x[319] 0
x[320] 1
x[321] 0
x[322] 0
x[323] 1
x[324] 1
x[325] 0
x[326] 1
x[327] 1
x[328] 1
x[329] 1
x[330] 0
x[331] 0
x[332] 1
x[333] 0
x[334] 1
x[335] 0
x[336] 0
x[337] 0
x[338] 1
x[339] 0
x[340] 0
x[341] 1
x[342] 0
x[343] 1
x[344] 0
x[345] 0
x[346] 0
x[347] 1
x[348] 0
x[349] 0
x[350] 1
x[351] 1
x[352] 0
x[353] 0
x[354] 0
x[355] 0
x[356] 0
x[357] 0
x[358] 0
x[359] 1
x[360] 0
x[361] 0
x[362] 0
x[363] 1
x[364] 0
x[365] 1
x[366] 0
x[367] 0
x[368] 1
x[369] 0
x[370] 1
x[371] 1
x[372] 1
x[373] 0
x[374] 0
x[375] 1
x[376] 0
x[377] 0
x[378] 1
x[379] 0
x[380] 1
x[381] 0
x[382] 0
x[383] 1
x[384] 1
x[385] 0
x[386] 0
x[387] 1
x[388] 0
x[389] 1
x[390] 0
x[391] 0
x[392] 1
x[393] 0
x[394] 0
x[395] 0
x[396] 0
x[397] 0
x[398] 1
x[399] 1
x[400] 0
x[401] 0
x[402] 0
x[403] 0
x[404] 0
x[405] 0
x[406] 0
x[407] 1
x[408] 0
x[409] 0
x[410] 0
x[411] 0
x[412] 0
x[413] 0
x[414] 0
x[415] 1
x[416] 0
x[417] 0
x[418] 0
x[419] 0
x[420] 1
x[421] 0
x[422] 1
x[423] 1
x[424] 1
x[425] 0
x[426] 1
x[427] 1
x[428] 1
x[429] 1
x[430] 0
x[431] 1
x[432] 1
x[433] 0
x[434] 0
x[435] 0
x[436] 1
x[437] 0
x[438] 0
x[439] 0
x[440] 1
x[441] 1
x[442] 1
x[443] 1
x[444] 1
x[445] 0
x[446] 0
x[447] 1
x[448] 0
x[449] 0
x[450] 1
x[451] 0
x[452] 1
x[453] 1
x[454] 0
x[455] 0
x[456] 1
x[457] 1
x[458] 0
x[459] 0
x[460] 0
x[461] 0
x[462] 1
x[463] 1
x[464] 1
x[465] 0
x[466] 0
x[467] 1
x[468] 0
x[469] 0
x[470] 1
x[471] 1
x[472] 0
x[473] 0
x[474] 1
x[475] 0
x[476] 1
x[477] 1
x[478] 0
x[479] 1
x[480] 1
x[481] 0
x[482] 0
x[483] 0
x[484] 0
x[485] 0
x[486] 0
x[487] 1
x[488] 0
x[489] 0
x[490] 1
x[491] 1
x[492] 0
x[493] 0
x[494] 0
x[495] 0
x[496] 0
x[497] 0
x[498] 1
x[499] 0
x[500] 1
x[501] 1
x[502] 0
x[503] 0
x[504] 1
x[505] 1
x[506] 0
x[507] 1
x[508] 0
x[509] 1
x[510] 1
x[511] 0
x[512] 0
x[513] 0
x[514] 1
x[515] 1
x[516] 0
x[517] 0
x[518] 0
x[519] 1
x[520] 1
x[521] 1
x[522] 1
x[523] 0
x[524] 1
x[525] 1
x[526] 1
x[527] 1
x[528] 0
x[529] 0
x[530] 1
x[531] 1
x[532] 1
x[533] 0
x[534] 1
x[535] 0
x[536] 0
x[537] 1
x[538] 1
x[539] 0
x[540] 1
x[541] 1
x[542] 1
x[543] 0
x[544] 0
x[545] 0
x[546] 0
x[547] 1
x[548] 1
x[549] 0
x[550] 1
x[551] 1
x[552] 0
x[553] 1
x[554] 1
x[555] 0
x[556] 1
x[557] 1
x[558] 1
x[559] 0
x[560] 1
x[561] 1
x[562] 0
x[563] 1
x[564] 1
x[565] 1
x[566] 1
x[567] 0
x[568] 0
x[569] 0
x[570] 0
x[571] 0
x[572] 0
x[573] 0
x[574] 0
x[575] 0
x[576] 0
x[577] 1
x[578] 0
x[579] 1
x[580] 1
x[581] 0
x[582] 0
x[583] 0
x[584] 1
x[585] 1
x[586] 0
x[587] 1
x[588] 1
x[589] 0
x[590] 1
x[591] 1
x[592] 0
x[593] 1
x[594] 1
x[595] 1
x[596] 1
x[597] 1
x[598] 0
x[599] 1
x[600] 1
x[601] 1
x[602] 1
x[603] 0
x[604] 1
x[605] 1
x[606] 1
x[607] 0
x[608] 0
x[609] 0
x[610] 1
x[611] 0
x[612] 0
x[613] 0
x[614] 1
x[615] 1
x[616] 0
x[617] 0
x[618] 0
x[619] 0
x[620] 1
x[621] 0
x[622] 0
x[623] 1
x[624] 1
x[625] 1
x[626] 1
x[627] 0
x[628] 1
x[629] 0
x[630] 0
x[631] 1
x[632] 1
x[633] 1
x[634] 1
x[635] 0
x[636] 1
x[637] 1
x[638] 1
x[639] 1
x[640] 0
x[641] 1
x[642] 1
x[643] 0
x[644] 0
x[645] 0
x[646] 0
x[647] 0
x[648] 1
x[649] 0
x[650] 0
x[651] 0
x[652] 0
x[653] 1
x[654] 0
x[655] 1
x[656] 0
x[657] 1
x[658] 1
x[659] 1
x[660] 1
x[661] 1
x[662] 1
x[663] 1
x[664] 1
x[665] 0
x[666] 1
x[667] 0
x[668] 0
x[669] 0
x[670] 0
x[671] 0
x[672] 0
x[673] 0
x[674] 1
x[675] 0
x[676] 0
x[677] 0
x[678] 1
x[679] 0
x[680] 1
x[681] 1
x[682] 0
x[683] 0
x[684] 1
x[685] 0
x[686] 0
x[687] 0
x[688] 1
x[689] 1
x[690] 0
x[691] 1
x[692] 0
x[693] 0
x[694] 0
x[695] 1
x[696] 1
x[697] 0
x[698] 0
x[699] 0
x[700] 1
x[701] 0
x[702] 1
x[703] 0
x[704] 1
x[705] 1
x[706] 0
x[707] 0
x[708] 1
x[709] 1
x[710] 0
x[711] 0
x[712] 1
x[713] 1
x[714] 0
x[715] 1
x[716] 0
x[717] 1
x[718] 0
x[719] 0
x[720] 0
x[721] 1
x[722] 1
x[723] 1
x[724] 1
x[725] 0
x[726] 0
x[727] 0
x[728] 0
x[729] 0
x[730] 0
x[731] 1
x[732] 1
x[733] 1
x[734] 1
x[735] 1
x[736] 1
x[737] 1
x[738] 1
x[739] 1
x[740] 0
x[741] 1
x[742] 0
x[743] 0
x[744] 0
x[745] 0
x[746] 0
x[747] 1
x[748] 1
x[749] 1
x[750] 0
x[751] 0
x[752] 0
x[753] 0
x[754] 0
x[755] 1
x[756] 0
x[757] 1
x[758] 0
x[759] 1
x[760] 0
x[761] 1
x[762] 1
x[763] 0
x[764] 0
x[765] 0
x[766] 1
x[767] 1
x[768] 0
x[769] 1
x[770] 1
x[771] 0
x[772] 1
x[773] 1
x[774] 0
x[775] 1
x[776] 0
x[777] 1
x[778] 0
x[779] 1
x[780] 1
x[781] 1
x[782] 0
x[783] 1
x[784] 1
x[785] 0
x[786] 1
x[787] 0
x[788] 0
x[789] 0
x[790] 1
x[791] 0
x[792] 0
x[793] 0
x[794] 1
x[795] 0
x[796] 0
x[797] 0
x[798] 1
x[799] 0
x[800] 0
x[801] 0
x[802] 0
x[803] 0
x[804] 1
x[805] 1
x[806] 0
x[807] 1
x[808] 1
x[809] 1
x[810] 0
x[811] 0
x[812] 1
x[813] 1
x[814] 0
x[815] 0
x[816] 0
x[817] 1
x[818] 1
x[819] 0
x[820] 1
x[821] 0
x[822] 0
x[823] 0
x[824] 1
x[825] 1
x[826] 1
x[827] 0
x[828] 0
x[829] 0
x[830] 0
x[831] 0
x[832] 0
x[833] 0
x[834] 1
x[835] 1
x[836] 1
x[837] 0
x[838] 0
x[839] 0
x[840] 1
x[841] 1
x[842] 0
x[843] 1
x[844] 0
x[845] 0
x[846] 1
x[847] 1
x[848] 1
x[849] 1
x[850] 1
x[851] 0
x[852] 0
x[853] 1
x[854] 1
x[855] 1
x[856] 1
x[857] 0
x[858] 1
x[859] 1
x[860] 0
x[861] 1
x[862] 0
x[863] 0
x[864] 0
x[865] 0
x[866] 0
x[867] 1
x[868] 0
x[869] 0
x[870] 1
x[871] 0
x[872] 0
x[873] 0
x[874] 1
x[875] 0
x[876] 0
x[877] 0
x[878] 1
x[879] 1
x[880] 0
x[881] 0
x[882] 1
x[883] 0
x[884] 0
x[885] 1
x[886] 0
x[887] 0
x[888] 0
x[889] 1
x[890] 0
x[891] 1
x[892] 0
x[893] 1
x[894] 1
x[895] 0
x[896] 1
x[897] 1
x[898] 0
x[899] 1
x[900] 0
x[901] 0
x[902] 1
x[903] 0
x[904] 1
x[905] 1
x[906] 1
x[907] 0
x[908] 0
x[909] 0
x[910] 1
x[911] 1
x[912] 0
x[913] 0
x[914] 1
x[915] 0
x[916] 0
x[917] 0
x[918] 0
x[919] 0
x[920] 0
x[921] 1
x[922] 1
x[923] 0
x[924] 1
x[925] 1
x[926] 0
x[927] 0
x[928] 0
x[929] 0
x[930] 0
x[931] 1
x[932] 0
x[933] 1
x[934] 1
x[935] 1
x[936] 1
x[937] 1
x[938] 0
x[939] 1
x[940] 0
x[941] 1
x[942] 1
x[943] 1
x[944] 0
x[945] 0
x[946] 1
x[947] 1
x[948] 0
x[949] 0
x[950] 1
x[951] 1
x[952] 0
x[953] 0
x[954] 1
x[955] 0
x[956] 0
x[957] 0
x[958] 1
x[959] 0
x[960] 0
x[961] 1
x[962] 0
x[963] 1
x[964] 1
x[965] 0
x[966] 1
x[967] 0
x[968] 1
x[969] 1
x[970] 0
x[971] 1
x[972] 0
x[973] 1
x[974] 0
x[975] 1
x[976] 0
x[977] 0
x[978] 1
x[979] 1
x[980] 1
x[981] 0
x[982] 0
x[983] 0
x[984] 1
x[985] 0
x[986] 0
x[987] 0
x[988] 0
x[989] 1
x[990] 1
x[991] 1
x[992] 0
x[993] 1
x[994] 1
x[995] 1
x[996] 0
x[997] 1
x[998] 1
x[999] 1
